; ./seahorn/./sv_comp_flat_small/product-lines/email_spec0_product05_true-unreach-call.cil.c.flat_000.smt2
(set-logic HORN)

(declare-fun |main_1| ( Int Int Int Int Int Int Int Int Int Int Int Int Int Int ) Bool)

(assert
  (forall ( (A Int) (B Int) (C Int) (D Int) (E Int) (F Int) (G Int) (H Int) (I Int) (J Int) (K Int) (L Int) (M Int) (v_13 Int) ) 
    (=>
      (and
        (and true (= 0 v_13))
      )
      (main_1 v_13 A B C D E F G H I J K L M)
    )
  )
)
(assert
  (forall ( (A Int) (B Int) (C Int) (D Int) (E Int) (F Int) (G Int) (H Int) (I Int) (J Int) (K Int) (L Int) (M Int) (N Int) (O Bool) (P Bool) (Q Bool) (R Int) (S Int) (T Int) (U Int) (V Int) (W Int) (X Int) (Y Int) (Z Int) (A1 Int) (B1 Int) (C1 Int) (D1 Int) (E1 Int) (F1 Int) (G1 Int) (H1 Int) (I1 Int) (J1 Int) (K1 Int) (L1 Int) (M1 Int) (N1 Int) (O1 Int) (P1 Int) (v_42 Int) (v_43 Int) ) 
    (=>
      (and
        (main_1 v_42 B C D E F G H I J K L M N)
        (and (= 0 v_42)
     (or (= B1 0) (not O) (not Q))
     (or (= A1 0) (not O) (not Q))
     (or (= Z 0) (not O) (not Q))
     (or (= Y 0) (not O) (not Q))
     (or (= X 0) (not O) (not Q))
     (or (= W 0) (not O) (not Q))
     (or (= V 0) (not O) (not Q))
     (or (= U 0) (not O) (not Q))
     (or (= T 0) (not O) (not Q))
     (or (= S 0) (not O) (not Q))
     (or (= R 0) (not O) (not Q))
     (or (= A C1) (not O) (not Q))
     (or (= P1 D1) (not O) (not Q))
     (or (= O1 B1) (not O) (not Q))
     (or (= N1 A1) (not O) (not Q))
     (or (= M1 Z) (not O) (not Q))
     (or (= L1 Y) (not O) (not Q))
     (or (= K1 X) (not O) (not Q))
     (or (= J1 W) (not O) (not Q))
     (or (= I1 V) (not O) (not Q))
     (or (= H1 U) (not O) (not Q))
     (or (= G1 T) (not O) (not Q))
     (or (= F1 S) (not O) (not Q))
     (or (= E1 R) (not O) (not Q))
     (or (= D1 0) (not O) (not Q))
     (or (not P) (and O Q))
     (= P true)
     (or (= C1 0) (not O) (not Q))
     (= 1 v_43))
      )
      (main_1 v_43 E1 F1 G1 H1 I1 J1 K1 L1 M1 N1 O1 A P1)
    )
  )
)
(assert
  (forall ( (A Bool) (B Int) (C Bool) (D Bool) (E Int) (F Bool) (G Bool) (H Int) (I Bool) (J Bool) (K Int) (L Bool) (M Bool) (N Int) (O Bool) (P Bool) (Q Int) (R Bool) (S Bool) (T Int) (U Bool) (V Bool) (W Int) (X Bool) (Y Bool) (Z Int) (A1 Bool) (B1 Bool) (C1 Int) (D1 Bool) (E1 Bool) (F1 Int) (G1 Bool) (H1 Int) (I1 Int) (J1 Int) (K1 Int) (L1 Int) (M1 Int) (N1 Int) (O1 Int) (P1 Int) (Q1 Int) (R1 Int) (S1 Bool) (T1 Int) (U1 Int) (V1 Int) (W1 Int) (X1 Int) (Y1 Int) (Z1 Int) (A2 Int) (B2 Int) (C2 Int) (D2 Int) (E2 Int) (F2 Int) (G2 Int) (H2 Bool) (I2 Int) (J2 Int) (K2 Int) (L2 Int) (M2 Int) (N2 Int) (O2 Int) (P2 Int) (Q2 Int) (R2 Int) (S2 Int) (T2 Int) (U2 Int) (V2 Int) (W2 Int) (X2 Int) (Y2 Int) (Z2 Int) (A3 Int) (B3 Int) (C3 Int) (D3 Int) (E3 Int) (F3 Int) (G3 Int) (H3 Int) (I3 Bool) (J3 Bool) (K3 Bool) (L3 Bool) (M3 Bool) (N3 Bool) (O3 Bool) (P3 Bool) (Q3 Bool) (R3 Bool) (S3 Bool) (T3 Bool) (U3 Bool) (V3 Bool) (W3 Bool) (X3 Bool) (Y3 Bool) (Z3 Bool) (A4 Bool) (B4 Bool) (C4 Bool) (D4 Bool) (E4 Bool) (F4 Bool) (G4 Bool) (H4 Bool) (I4 Bool) (J4 Bool) (K4 Bool) (L4 Bool) (M4 Bool) (N4 Bool) (O4 Bool) (P4 Bool) (Q4 Bool) (R4 Bool) (S4 Bool) (T4 Bool) (U4 Bool) (V4 Bool) (W4 Bool) (X4 Bool) (Y4 Bool) (Z4 Bool) (A5 Bool) (B5 Bool) (C5 Bool) (D5 Bool) (E5 Bool) (F5 Bool) (G5 Bool) (H5 Bool) (I5 Bool) (J5 Bool) (K5 Bool) (L5 Bool) (M5 Bool) (N5 Bool) (O5 Bool) (P5 Bool) (Q5 Bool) (R5 Bool) (S5 Bool) (T5 Bool) (U5 Int) (V5 Int) (W5 Int) (X5 Int) (Y5 Int) (Z5 Int) (A6 Int) (B6 Int) (C6 Int) (D6 Int) (E6 Int) (F6 Int) (G6 Int) (H6 Int) (I6 Int) (J6 Int) (K6 Int) (L6 Int) (M6 Int) (N6 Int) (O6 Int) (P6 Int) (Q6 Int) (R6 Int) (S6 Int) (T6 Int) (U6 Int) (V6 Int) (W6 Int) (X6 Int) (Y6 Int) (Z6 Int) (A7 Int) (B7 Int) (C7 Int) (D7 Int) (E7 Int) (F7 Int) (G7 Int) (H7 Int) (I7 Int) (J7 Int) (K7 Int) (L7 Int) (M7 Int) (N7 Int) (O7 Int) (P7 Int) (Q7 Int) (R7 Int) (S7 Int) (T7 Int) (U7 Int) (V7 Int) (W7 Int) (X7 Int) (Y7 Int) (Z7 Int) (A8 Int) (B8 Int) (C8 Int) (D8 Int) (E8 Int) (F8 Int) (G8 Int) (H8 Int) (I8 Int) (J8 Int) (K8 Int) (L8 Int) (M8 Int) (N8 Int) (O8 Int) (P8 Int) (Q8 Int) (R8 Int) (S8 Int) (T8 Int) (U8 Int) (V8 Int) (W8 Int) (X8 Int) (Y8 Int) (Z8 Int) (A9 Int) (B9 Int) (C9 Int) (D9 Int) (E9 Int) (F9 Int) (G9 Int) (H9 Int) (I9 Int) (J9 Int) (K9 Int) (L9 Int) (M9 Int) (N9 Int) (O9 Int) (P9 Int) (Q9 Int) (R9 Int) (S9 Int) (T9 Int) (U9 Int) (V9 Int) (W9 Int) (X9 Int) (Y9 Int) (Z9 Int) (A10 Int) (B10 Int) (C10 Int) (D10 Int) (E10 Int) (F10 Int) (G10 Int) (H10 Int) (I10 Int) (J10 Int) (K10 Int) (L10 Int) (M10 Int) (N10 Int) (O10 Int) (P10 Int) (Q10 Int) (R10 Int) (S10 Int) (T10 Int) (U10 Int) (V10 Int) (W10 Int) (X10 Bool) (Y10 Bool) (v_285 Int) (v_286 Int) ) 
    (=>
      (and
        (main_1 v_285 U1 V1 W1 X1 Y1 Z1 A2 B2 C2 D2 E2 F2 G2)
        (let ((a!1 (or (not I5) (not (= (<= 4 H3) A)))))
  (and (= 1 v_285)
       (= H3 (+ 1 F2))
       (or (and G5 J5)
           (and B5 K5)
           (and W4 L5)
           (and R4 M5)
           (and M4 N5)
           (and H4 O5)
           (and C4 P5)
           (and X3 Q5)
           (and S3 R5)
           (and N3 S5)
           (and I3 T5)
           (not I5))
       (or (= G3 U2) (not I5) (not Y10))
       (or (= F3 S2) (not I5) (not Y10))
       (or (= E3 R2) (not I5) (not Y10))
       (or (= D3 Q2) (not I5) (not Y10))
       (or (= C3 P2) (not I5) (not Y10))
       (or (= B3 O2) (not I5) (not Y10))
       (or (= A3 N2) (not I5) (not Y10))
       (or (= Z2 M2) (not I5) (not Y10))
       (or (= Y2 L2) (not I5) (not Y10))
       (or (= X2 K2) (not I5) (not Y10))
       (or (= W2 J2) (not I5) (not Y10))
       (or (= V2 I2) (not I5) (not Y10))
       (or (= U2 W10) (not I5) (not Y10))
       (or (= T2 H3) (not I5) (not Y10))
       (or (= S2 H1) (not I5) (not Y10))
       (or (= R2 I1) (not I5) (not Y10))
       (or (= Q2 J1) (not I5) (not Y10))
       (or (= P2 K1) (not I5) (not Y10))
       (or (= O2 L1) (not I5) (not Y10))
       (or (= N2 M1) (not I5) (not Y10))
       (or (= M2 N1) (not I5) (not Y10))
       (or (= L2 O1) (not I5) (not Y10))
       (or (= K2 P1) (not I5) (not Y10))
       (or (= J2 Q1) (not I5) (not Y10))
       (or (= I2 R1) (not I5) (not Y10))
       (or (= T1 T2) (not I5) (not Y10))
       (or (= F6 U1) (not G5) (not J5))
       (or (= E6 V1) (not G5) (not J5))
       (or (= D6 W1) (not G5) (not J5))
       (or (= C6 X1) (not G5) (not J5))
       (or (= B6 Y1) (not G5) (not J5))
       (or (= A6 Z1) (not G5) (not J5))
       (or (= Z5 A2) (not G5) (not J5))
       (or (= Y5 B2) (not G5) (not J5))
       (or (= X5 C2) (not G5) (not J5))
       (or (= W5 D2) (not G5) (not J5))
       (or (= V5 1) (not G5) (not J5))
       (or (= U5 G2) (not G5) (not J5))
       (or (= R1 F6) (not G5) (not J5))
       (or (= Q1 E6) (not G5) (not J5))
       (or (= P1 D6) (not G5) (not J5))
       (or (= O1 C6) (not G5) (not J5))
       (or (= N1 B6) (not G5) (not J5))
       (or (= M1 A6) (not G5) (not J5))
       (or (= L1 Z5) (not G5) (not J5))
       (or (= K1 Y5) (not G5) (not J5))
       (or (= J1 X5) (not G5) (not J5))
       (or (= I1 W5) (not G5) (not J5))
       (or (= H1 V5) (not G5) (not J5))
       (or (= W10 U5) (not G5) (not J5))
       (or (and B5 E5) (and Y4 F5) (not D5))
       (or (= R6 U1) (not B5) (not K5))
       (or (= Q6 V1) (not B5) (not K5))
       (or (= P6 W1) (not B5) (not K5))
       (or (= O6 X1) (not B5) (not K5))
       (or (= N6 Y1) (not B5) (not K5))
       (or (= M6 Z1) (not B5) (not K5))
       (or (= L6 A2) (not B5) (not K5))
       (or (= K6 B2) (not B5) (not K5))
       (or (= J6 C2) (not B5) (not K5))
       (or (= I6 1) (not B5) (not K5))
       (or (= H6 E2) (not B5) (not K5))
       (or (= G6 G2) (not B5) (not K5))
       (or (= R1 R6) (not B5) (not K5))
       (or (= Q1 Q6) (not B5) (not K5))
       (or (= P1 P6) (not B5) (not K5))
       (or (= O1 O6) (not B5) (not K5))
       (or (= N1 N6) (not B5) (not K5))
       (or (= M1 M6) (not B5) (not K5))
       (or (= L1 L6) (not B5) (not K5))
       (or (= K1 K6) (not B5) (not K5))
       (or (= J1 J6) (not B5) (not K5))
       (or (= I1 I6) (not B5) (not K5))
       (or (= H1 H6) (not B5) (not K5))
       (or (= W10 G6) (not B5) (not K5))
       (or (and W4 Z4) (and T4 A5) (not Y4))
       (or (= D7 U1) (not W4) (not L5))
       (or (= C7 V1) (not W4) (not L5))
       (or (= B7 W1) (not W4) (not L5))
       (or (= A7 X1) (not W4) (not L5))
       (or (= Z6 Y1) (not W4) (not L5))
       (or (= Y6 Z1) (not W4) (not L5))
       (or (= X6 A2) (not W4) (not L5))
       (or (= W6 B2) (not W4) (not L5))
       (or (= V6 1) (not W4) (not L5))
       (or (= U6 D2) (not W4) (not L5))
       (or (= T6 E2) (not W4) (not L5))
       (or (= S6 G2) (not W4) (not L5))
       (or (= R1 D7) (not W4) (not L5))
       (or (= Q1 C7) (not W4) (not L5))
       (or (= P1 B7) (not W4) (not L5))
       (or (= O1 A7) (not W4) (not L5))
       (or (= N1 Z6) (not W4) (not L5))
       (or (= M1 Y6) (not W4) (not L5))
       (or (= L1 X6) (not W4) (not L5))
       (or (= K1 W6) (not W4) (not L5))
       (or (= J1 V6) (not W4) (not L5))
       (or (= I1 U6) (not W4) (not L5))
       (or (= H1 T6) (not W4) (not L5))
       (or (= W10 S6) (not W4) (not L5))
       (or (and R4 U4) (and O4 V4) (not T4))
       (or (= P7 U1) (not R4) (not M5))
       (or (= O7 V1) (not R4) (not M5))
       (or (= N7 W1) (not R4) (not M5))
       (or (= M7 X1) (not R4) (not M5))
       (or (= L7 Y1) (not R4) (not M5))
       (or (= K7 Z1) (not R4) (not M5))
       (or (= J7 A2) (not R4) (not M5))
       (or (= I7 1) (not R4) (not M5))
       (or (= H7 C2) (not R4) (not M5))
       (or (= G7 D2) (not R4) (not M5))
       (or (= F7 E2) (not R4) (not M5))
       (or (= E7 G2) (not R4) (not M5))
       (or (= R1 P7) (not R4) (not M5))
       (or (= Q1 O7) (not R4) (not M5))
       (or (= P1 N7) (not R4) (not M5))
       (or (= O1 M7) (not R4) (not M5))
       (or (= N1 L7) (not R4) (not M5))
       (or (= M1 K7) (not R4) (not M5))
       (or (= L1 J7) (not R4) (not M5))
       (or (= K1 I7) (not R4) (not M5))
       (or (= J1 H7) (not R4) (not M5))
       (or (= I1 G7) (not R4) (not M5))
       (or (= H1 F7) (not R4) (not M5))
       (or (= W10 E7) (not R4) (not M5))
       (or (and M4 P4) (and J4 Q4) (not O4))
       (or (= B8 U1) (not M4) (not N5))
       (or (= A8 V1) (not M4) (not N5))
       (or (= Z7 W1) (not M4) (not N5))
       (or (= Y7 X1) (not M4) (not N5))
       (or (= X7 Y1) (not M4) (not N5))
       (or (= W7 Z1) (not M4) (not N5))
       (or (= V7 1) (not M4) (not N5))
       (or (= U7 B2) (not M4) (not N5))
       (or (= T7 C2) (not M4) (not N5))
       (or (= S7 D2) (not M4) (not N5))
       (or (= R7 E2) (not M4) (not N5))
       (or (= Q7 G2) (not M4) (not N5))
       (or (= R1 B8) (not M4) (not N5))
       (or (= Q1 A8) (not M4) (not N5))
       (or (= P1 Z7) (not M4) (not N5))
       (or (= O1 Y7) (not M4) (not N5))
       (or (= N1 X7) (not M4) (not N5))
       (or (= M1 W7) (not M4) (not N5))
       (or (= L1 V7) (not M4) (not N5))
       (or (= K1 U7) (not M4) (not N5))
       (or (= J1 T7) (not M4) (not N5))
       (or (= I1 S7) (not M4) (not N5))
       (or (= H1 R7) (not M4) (not N5))
       (or (= W10 Q7) (not M4) (not N5))
       (or (and H4 K4) (and E4 L4) (not J4))
       (or (= N8 U1) (not H4) (not O5))
       (or (= M8 V1) (not H4) (not O5))
       (or (= L8 W1) (not H4) (not O5))
       (or (= K8 X1) (not H4) (not O5))
       (or (= J8 Y1) (not H4) (not O5))
       (or (= I8 1) (not H4) (not O5))
       (or (= H8 A2) (not H4) (not O5))
       (or (= G8 B2) (not H4) (not O5))
       (or (= F8 C2) (not H4) (not O5))
       (or (= E8 D2) (not H4) (not O5))
       (or (= D8 E2) (not H4) (not O5))
       (or (= C8 3) (not H4) (not O5))
       (or (= R1 N8) (not H4) (not O5))
       (or (= Q1 M8) (not H4) (not O5))
       (or (= P1 L8) (not H4) (not O5))
       (or (= O1 K8) (not H4) (not O5))
       (or (= N1 J8) (not H4) (not O5))
       (or (= M1 I8) (not H4) (not O5))
       (or (= L1 H8) (not H4) (not O5))
       (or (= K1 G8) (not H4) (not O5))
       (or (= J1 F8) (not H4) (not O5))
       (or (= I1 E8) (not H4) (not O5))
       (or (= H1 D8) (not H4) (not O5))
       (or (= W10 C8) (not H4) (not O5))
       (or (and C4 F4) (and Z3 G4) (not E4))
       (or (= Z8 U1) (not C4) (not P5))
       (or (= Y8 V1) (not C4) (not P5))
       (or (= X8 W1) (not C4) (not P5))
       (or (= W8 X1) (not C4) (not P5))
       (or (= V8 1) (not C4) (not P5))
       (or (= U8 Z1) (not C4) (not P5))
       (or (= T8 A2) (not C4) (not P5))
       (or (= S8 B2) (not C4) (not P5))
       (or (= R8 C2) (not C4) (not P5))
       (or (= Q8 D2) (not C4) (not P5))
       (or (= P8 E2) (not C4) (not P5))
       (or (= O8 G2) (not C4) (not P5))
       (or (= R1 Z8) (not C4) (not P5))
       (or (= Q1 Y8) (not C4) (not P5))
       (or (= P1 X8) (not C4) (not P5))
       (or (= O1 W8) (not C4) (not P5))
       (or (= N1 V8) (not C4) (not P5))
       (or (= M1 U8) (not C4) (not P5))
       (or (= L1 T8) (not C4) (not P5))
       (or (= K1 S8) (not C4) (not P5))
       (or (= J1 R8) (not C4) (not P5))
       (or (= I1 Q8) (not C4) (not P5))
       (or (= H1 P8) (not C4) (not P5))
       (or (= W10 O8) (not C4) (not P5))
       (or (and X3 A4) (and U3 B4) (not Z3))
       (or (= I9 1) (not X3) (not Q5))
       (or (= H9 Y1) (not X3) (not Q5))
       (or (= G9 Z1) (not X3) (not Q5))
       (or (= F9 A2) (not X3) (not Q5))
       (or (= E9 B2) (not X3) (not Q5))
       (or (= D9 C2) (not X3) (not Q5))
       (or (= C9 D2) (not X3) (not Q5))
       (or (= B9 E2) (not X3) (not Q5))
       (or (= A9 G2) (not X3) (not Q5))
       (or (= R1 L9) (not X3) (not Q5))
       (or (= Q1 K9) (not X3) (not Q5))
       (or (= P1 J9) (not X3) (not Q5))
       (or (= O1 I9) (not X3) (not Q5))
       (or (= N1 H9) (not X3) (not Q5))
       (or (= M1 G9) (not X3) (not Q5))
       (or (= L1 F9) (not X3) (not Q5))
       (or (= K1 E9) (not X3) (not Q5))
       (or (= J1 D9) (not X3) (not Q5))
       (or (= I1 C9) (not X3) (not Q5))
       (or (= H1 B9) (not X3) (not Q5))
       (or (= L9 U1) (not X3) (not Q5))
       (or (= K9 V1) (not X3) (not Q5))
       (or (= J9 W1) (not X3) (not Q5))
       (or (= W10 A9) (not X3) (not Q5))
       (or (and S3 V3) (and P3 W3) (not U3))
       (or (= X9 U1) (not S3) (not R5))
       (or (= R1 X9) (not S3) (not R5))
       (or (= Q1 W9) (not S3) (not R5))
       (or (= P1 V9) (not S3) (not R5))
       (or (= O1 U9) (not S3) (not R5))
       (or (= N1 T9) (not S3) (not R5))
       (or (= M1 S9) (not S3) (not R5))
       (or (= L1 R9) (not S3) (not R5))
       (or (= K1 Q9) (not S3) (not R5))
       (or (= J1 P9) (not S3) (not R5))
       (or (= I1 O9) (not S3) (not R5))
       (or (= H1 N9) (not S3) (not R5))
       (or (= W9 V1) (not S3) (not R5))
       (or (= V9 1) (not S3) (not R5))
       (or (= U9 X1) (not S3) (not R5))
       (or (= T9 Y1) (not S3) (not R5))
       (or (= S9 Z1) (not S3) (not R5))
       (or (= R9 A2) (not S3) (not R5))
       (or (= Q9 B2) (not S3) (not R5))
       (or (= P9 C2) (not S3) (not R5))
       (or (= O9 D2) (not S3) (not R5))
       (or (= N9 E2) (not S3) (not R5))
       (or (= M9 G2) (not S3) (not R5))
       (or (= W10 M9) (not S3) (not R5))
       (or (and N3 Q3) (and K3 R3) (not P3))
       (or (= Z9 E2) (not N3) (not S5))
       (or (= Y9 G2) (not N3) (not S5))
       (or (= R1 J10) (not N3) (not S5))
       (or (= Q1 I10) (not N3) (not S5))
       (or (= P1 H10) (not N3) (not S5))
       (or (= O1 G10) (not N3) (not S5))
       (or (= N1 F10) (not N3) (not S5))
       (or (= M1 E10) (not N3) (not S5))
       (or (= L1 D10) (not N3) (not S5))
       (or (= K1 C10) (not N3) (not S5))
       (or (= J1 B10) (not N3) (not S5))
       (or (= I1 A10) (not N3) (not S5))
       (or (= H1 Z9) (not N3) (not S5))
       (or (= J10 U1) (not N3) (not S5))
       (or (= I10 1) (not N3) (not S5))
       (or (= H10 W1) (not N3) (not S5))
       (or (= G10 X1) (not N3) (not S5))
       (or (= F10 Y1) (not N3) (not S5))
       (or (= E10 Z1) (not N3) (not S5))
       (or (= D10 A2) (not N3) (not S5))
       (or (= C10 B2) (not N3) (not S5))
       (or (= B10 C2) (not N3) (not S5))
       (or (= A10 D2) (not N3) (not S5))
       (or (= W10 Y9) (not N3) (not S5))
       (or (and I3 L3) (and H2 M3) (not K3))
       (or (= R1 V10) (not I3) (not T5))
       (or (= Q1 U10) (not I3) (not T5))
       (or (= P1 T10) (not I3) (not T5))
       (or (= O1 S10) (not I3) (not T5))
       (or (= N1 R10) (not I3) (not T5))
       (or (= M1 Q10) (not I3) (not T5))
       (or (= L1 P10) (not I3) (not T5))
       (or (= K1 O10) (not I3) (not T5))
       (or (= J1 N10) (not I3) (not T5))
       (or (= I1 M10) (not I3) (not T5))
       (or (= H1 L10) (not I3) (not T5))
       (or (= L10 E2) (not I3) (not T5))
       (or (= K10 G2) (not I3) (not T5))
       (or (= W10 K10) (not I3) (not T5))
       (or (= V10 1) (not I3) (not T5))
       (or (= U10 V1) (not I3) (not T5))
       (or (= T10 W1) (not I3) (not T5))
       (or (= S10 X1) (not I3) (not T5))
       (or (= R10 Y1) (not I3) (not T5))
       (or (= Q10 Z1) (not I3) (not T5))
       (or (= P10 A2) (not I3) (not T5))
       (or (= O10 B2) (not I3) (not T5))
       (or (= N10 C2) (not I3) (not T5))
       (or (= M10 D2) (not I3) (not T5))
       (or (not S1) (not H2) (not M3))
       (or S1 (not H2) (not J3))
       (or (not G1) (not I3) (not T5))
       (or G1 (not I3) (not L3))
       (or (not E1) (not K3) (not R3))
       (or E1 (not K3) (not O3))
       (or (not D1) (not N3) (not S5))
       (or D1 (not N3) (not Q3))
       (or (not B1) (not P3) (not W3))
       (or B1 (not P3) (not T3))
       (or (not A1) (not S3) (not R5))
       (or A1 (not S3) (not V3))
       (or (not Y) (not U3) (not B4))
       (or Y (not U3) (not Y3))
       (or (not X) (not X3) (not Q5))
       (or X (not X3) (not A4))
       (or (not V) (not Z3) (not G4))
       (or V (not Z3) (not D4))
       (or (not U) (not C4) (not P5))
       (or U (not C4) (not F4))
       (or (not S) (not E4) (not L4))
       (or S (not E4) (not I4))
       (or (not R) (not H4) (not O5))
       (or R (not H4) (not K4))
       (or (not P) (not J4) (not Q4))
       (or P (not J4) (not N4))
       (or (not O) (not M4) (not N5))
       (or O (not M4) (not P4))
       (or (not M) (not O4) (not V4))
       (or M (not O4) (not S4))
       (or (not L) (not R4) (not M5))
       (or L (not R4) (not U4))
       (or (not J) (not T4) (not A5))
       (or J (not T4) (not X4))
       (or (not I) (not W4) (not L5))
       (or I (not W4) (not Z4))
       (or (not G) (not Y4) (not F5))
       (or G (not Y4) (not C5))
       (or (not F) (not B5) (not K5))
       (or F (not B5) (not E5))
       (or D (not D5) (not H5))
       (or (not C) (not G5) (not J5))
       (or A (not I5) (not Y10))
       (or (not X10) (and I5 Y10))
       a!1
       (or (not G5) (= C (= B 0)))
       (or (not G5) (and D5 H5))
       (or (not D5) (= D (= E2 0)))
       (or (not B5) (= F (= E 0)))
       (or (not B5) (and Y4 C5))
       (or (not Y4) (= G (= D2 0)))
       (or (not W4) (= I (= H 0)))
       (or (not W4) (and T4 X4))
       (or (not T4) (= J (= C2 0)))
       (or (not R4) (= L (= K 0)))
       (or (not R4) (and O4 S4))
       (or (not O4) (= M (= B2 0)))
       (or (not M4) (= O (= N 0)))
       (or (not M4) (and J4 N4))
       (or (not J4) (= P (= A2 0)))
       (or (not H4) (= R (= Q 0)))
       (or (not H4) (and E4 I4))
       (or (not E4) (= S (= Z1 0)))
       (or (not C4) (= U (= T 0)))
       (or (not C4) (and Z3 D4))
       (or (not Z3) (= V (= Y1 0)))
       (or (not X3) (= X (= W 0)))
       (or (not X3) (and U3 Y3))
       (or (not U3) (= Y (= X1 0)))
       (or (not S3) (= A1 (= Z 0)))
       (or (not S3) (and P3 T3))
       (or (not P3) (= B1 (= W1 0)))
       (or (not N3) (= D1 (= C1 0)))
       (or (not N3) (and K3 O3))
       (or (not K3) (= E1 (= V1 0)))
       (or (not I3) (= G1 (= F1 0)))
       (or (not I3) (and H2 J3))
       (= X10 true)
       (= S1 (= U1 0))
       (= 1 v_286)))
      )
      (main_1 v_286 V2 W2 X2 Y2 Z2 A3 B3 C3 D3 E3 F3 T1 G3)
    )
  )
)
(assert
  (forall ( (A Bool) (B Bool) (C Bool) (D Bool) (E Bool) (F Int) (G Bool) (H Bool) (I Int) (J Bool) (K Bool) (L Int) (M Bool) (N Bool) (O Int) (P Bool) (Q Bool) (R Int) (S Bool) (T Bool) (U Int) (V Bool) (W Bool) (X Int) (Y Bool) (Z Bool) (A1 Int) (B1 Bool) (C1 Bool) (D1 Int) (E1 Bool) (F1 Bool) (G1 Int) (H1 Bool) (I1 Bool) (J1 Int) (K1 Bool) (L1 Int) (M1 Int) (N1 Int) (O1 Int) (P1 Int) (Q1 Int) (R1 Int) (S1 Int) (T1 Int) (U1 Int) (V1 Int) (W1 Bool) (X1 Int) (Y1 Int) (Z1 Int) (A2 Int) (B2 Int) (C2 Int) (D2 Int) (E2 Int) (F2 Int) (G2 Int) (H2 Int) (I2 Int) (J2 Int) (K2 Bool) (L2 Int) (M2 Bool) (N2 Bool) (O2 Bool) (P2 Bool) (Q2 Bool) (R2 Bool) (S2 Bool) (T2 Bool) (U2 Bool) (V2 Bool) (W2 Bool) (X2 Bool) (Y2 Bool) (Z2 Bool) (A3 Bool) (B3 Bool) (C3 Bool) (D3 Bool) (E3 Bool) (F3 Bool) (G3 Bool) (H3 Bool) (I3 Bool) (J3 Bool) (K3 Bool) (L3 Bool) (M3 Bool) (N3 Bool) (O3 Bool) (P3 Bool) (Q3 Bool) (R3 Bool) (S3 Bool) (T3 Bool) (U3 Bool) (V3 Bool) (W3 Bool) (X3 Bool) (Y3 Bool) (Z3 Bool) (A4 Bool) (B4 Bool) (C4 Bool) (D4 Bool) (E4 Bool) (F4 Bool) (G4 Bool) (H4 Bool) (I4 Bool) (J4 Bool) (K4 Bool) (L4 Bool) (M4 Bool) (N4 Bool) (O4 Bool) (P4 Bool) (Q4 Bool) (R4 Bool) (S4 Bool) (T4 Bool) (U4 Bool) (V4 Bool) (W4 Bool) (X4 Bool) (Y4 Int) (Z4 Int) (A5 Int) (B5 Int) (C5 Int) (D5 Int) (E5 Int) (F5 Int) (G5 Int) (H5 Int) (I5 Int) (J5 Int) (K5 Int) (L5 Int) (M5 Int) (N5 Int) (O5 Int) (P5 Int) (Q5 Int) (R5 Int) (S5 Int) (T5 Int) (U5 Int) (V5 Int) (W5 Int) (X5 Int) (Y5 Int) (Z5 Int) (A6 Int) (B6 Int) (C6 Int) (D6 Int) (E6 Int) (F6 Int) (G6 Int) (H6 Int) (I6 Int) (J6 Int) (K6 Int) (L6 Int) (M6 Int) (N6 Int) (O6 Int) (P6 Int) (Q6 Int) (R6 Int) (S6 Int) (T6 Int) (U6 Int) (V6 Int) (W6 Int) (X6 Int) (Y6 Int) (Z6 Int) (A7 Int) (B7 Int) (C7 Int) (D7 Int) (E7 Int) (F7 Int) (G7 Int) (H7 Int) (I7 Int) (J7 Int) (K7 Int) (L7 Int) (M7 Int) (N7 Int) (O7 Int) (P7 Int) (Q7 Int) (R7 Int) (S7 Int) (T7 Int) (U7 Int) (V7 Int) (W7 Int) (X7 Int) (Y7 Int) (Z7 Int) (A8 Int) (B8 Int) (C8 Int) (D8 Int) (E8 Int) (F8 Int) (G8 Int) (H8 Int) (I8 Int) (J8 Int) (K8 Int) (L8 Int) (M8 Int) (N8 Int) (O8 Int) (P8 Int) (Q8 Int) (R8 Int) (S8 Int) (T8 Int) (U8 Int) (V8 Int) (W8 Int) (X8 Int) (Y8 Int) (Z8 Int) (A9 Int) (B9 Int) (C9 Int) (D9 Int) (E9 Int) (F9 Int) (G9 Int) (H9 Int) (I9 Int) (J9 Int) (K9 Int) (L9 Int) (M9 Int) (N9 Int) (O9 Int) (P9 Int) (Q9 Int) (R9 Int) (S9 Int) (T9 Int) (U9 Int) (V9 Int) (W9 Int) (X9 Int) (Y9 Int) (Z9 Int) (A10 Int) (B10 Bool) (C10 Bool) (D10 Bool) (E10 Bool) (F10 Int) (G10 Int) (H10 Int) (I10 Int) (J10 Bool) (K10 Bool) (L10 Bool) (M10 Bool) (N10 Bool) (O10 Bool) (P10 Bool) (Q10 Bool) (R10 Bool) (S10 Bool) (T10 Bool) (U10 Bool) (V10 Bool) (W10 Bool) (X10 Bool) (Y10 Bool) (Z10 Bool) (A11 Bool) (v_287 Int) (v_288 Int) ) 
    (=>
      (and
        (main_1 v_287 X1 Y1 Z1 A2 B2 C2 D2 E2 F2 G2 H2 I2 J2)
        (let ((a!1 (or (not L10) (not (= (<= 3 I10) C))))
      (a!2 (or (not M4) (not (= (<= 4 L2) E)))))
  (and (= 1 v_287)
       (= L2 (+ 1 I2))
       (or (and K4 N4)
           (and F4 O4)
           (and A4 P4)
           (and V3 Q4)
           (and Q3 R4)
           (and L3 S4)
           (not M4)
           (and X4 M2)
           (and W4 R2)
           (and V4 W2)
           (and U4 B3)
           (and T4 G3))
       (or (and N10 X10) (and P10 Y10) (and B10 A11) (not W10) (and Z10 U10))
       (or (and K4 C10) (and H4 D10) (and M4 E10) (not B10))
       (or (and N10 S10) (and P10 T10) (not R10))
       (or (not I3) (and K3 D3) (and G3 J3))
       (or (and B3 E3) (and Y2 F3) (not D3))
       (or (and W2 Z2) (and T2 A3) (not Y2))
       (or (and R2 U2) (and O2 V2) (not T2))
       (or (and M2 P2) (and K2 Q2) (not O2))
       (or (not W1) (not K2) (not Q2))
       (or W1 (not K2) (not N2))
       (or K1 (not M2) (not P2))
       (or H1 (not R2) (not U2))
       (or E1 (not W2) (not Z2))
       (or B1 (not B3) (not E3))
       (or Y (not G3) (not J3))
       (or B (not N10) (not X10))
       (or (not B) (not N10) (not S10))
       (or A (not P10) (not Y10))
       (or (not A) (not P10) (not T10))
       (or (not X4) (not M2) (= U1 Y9))
       (or (not X4) (not M2) (= A10 O9))
       (or (not X4) (not M2) (= Z9 1))
       (or (not X4) (not M2) (= V1 Z9))
       (or (not X4) (not M2) (= T1 X9))
       (or (not X4) (not M2) (= S1 W9))
       (or (not X4) (not M2) (= R1 V9))
       (or (not X4) (not M2) (= Q1 U9))
       (or (not X4) (not M2) (= P1 T9))
       (or (not X4) (not M2) (= O1 S9))
       (or (not X4) (not M2) (= N1 R9))
       (or (not X4) (not M2) (= M1 Q9))
       (or (not X4) (not M2) (= L1 P9))
       (or (not X4) (not M2) (= Y9 Y1))
       (or (not X4) (not M2) (= X9 Z1))
       (or (not X4) (not M2) (= W9 A2))
       (or (not X4) (not M2) (= V9 B2))
       (or (not X4) (not M2) (= U9 C2))
       (or (not X4) (not M2) (= T9 D2))
       (or (not X4) (not M2) (= S9 E2))
       (or (not X4) (not M2) (= R9 F2))
       (or (not X4) (not M2) (= Q9 G2))
       (or (not X4) (not M2) (= P9 H2))
       (or (not X4) (not M2) (= O9 J2))
       (or (not K1) (not X4) (not M2))
       (or (not W4) (not R2) (= U1 M9))
       (or (not W4) (not R2) (= A10 C9))
       (or (not W4) (not R2) (= K9 A2))
       (or (not W4) (not R2) (= J9 B2))
       (or (not W4) (not R2) (= I9 C2))
       (or (not W4) (not R2) (= H9 D2))
       (or (not W4) (not R2) (= G9 E2))
       (or (not W4) (not R2) (= F9 F2))
       (or (not W4) (not R2) (= E9 G2))
       (or (not W4) (not R2) (= D9 H2))
       (or (not W4) (not R2) (= C9 J2))
       (or (not W4) (not R2) (= V1 N9))
       (or (not W4) (not R2) (= T1 L9))
       (or (not W4) (not R2) (= S1 K9))
       (or (not W4) (not R2) (= R1 J9))
       (or (not W4) (not R2) (= Q1 I9))
       (or (not W4) (not R2) (= P1 H9))
       (or (not W4) (not R2) (= O1 G9))
       (or (not W4) (not R2) (= N1 F9))
       (or (not W4) (not R2) (= M1 E9))
       (or (not W4) (not R2) (= L1 D9))
       (or (not W4) (not R2) (= N9 X1))
       (or (not W4) (not R2) (= M9 1))
       (or (not W4) (not R2) (= L9 Z1))
       (or (not H1) (not W4) (not R2))
       (or (not V4) (not W2) (= U1 A9))
       (or (not V4) (not W2) (= A10 Q8))
       (or (not V4) (not W2) (= B9 X1))
       (or (not V4) (not W2) (= A9 Y1))
       (or (not V4) (not W2) (= Z8 1))
       (or (not V4) (not W2) (= Y8 A2))
       (or (not V4) (not W2) (= X8 B2))
       (or (not V4) (not W2) (= W8 C2))
       (or (not V4) (not W2) (= V8 D2))
       (or (not V4) (not W2) (= U8 E2))
       (or (not V4) (not W2) (= T8 F2))
       (or (not V4) (not W2) (= S8 G2))
       (or (not V4) (not W2) (= R8 H2))
       (or (not V4) (not W2) (= Q8 J2))
       (or (not V4) (not W2) (= V1 B9))
       (or (not V4) (not W2) (= T1 Z8))
       (or (not V4) (not W2) (= S1 Y8))
       (or (not V4) (not W2) (= R1 X8))
       (or (not V4) (not W2) (= Q1 W8))
       (or (not V4) (not W2) (= P1 V8))
       (or (not V4) (not W2) (= O1 U8))
       (or (not V4) (not W2) (= N1 T8))
       (or (not V4) (not W2) (= M1 S8))
       (or (not V4) (not W2) (= L1 R8))
       (or (not E1) (not V4) (not W2))
       (or (not U4) (not B3) (= U1 O8))
       (or (not U4) (not B3) (= A10 E8))
       (or (not U4) (not B3) (= P8 X1))
       (or (not U4) (not B3) (= O8 Y1))
       (or (not U4) (not B3) (= N8 Z1))
       (or (not U4) (not B3) (= M8 1))
       (or (not U4) (not B3) (= L8 B2))
       (or (not U4) (not B3) (= K8 C2))
       (or (not U4) (not B3) (= J8 D2))
       (or (not U4) (not B3) (= I8 E2))
       (or (not U4) (not B3) (= H8 F2))
       (or (not U4) (not B3) (= G8 G2))
       (or (not U4) (not B3) (= F8 H2))
       (or (not U4) (not B3) (= E8 J2))
       (or (not U4) (not B3) (= V1 P8))
       (or (not U4) (not B3) (= T1 N8))
       (or (not U4) (not B3) (= S1 M8))
       (or (not U4) (not B3) (= R1 L8))
       (or (not U4) (not B3) (= Q1 K8))
       (or (not U4) (not B3) (= P1 J8))
       (or (not U4) (not B3) (= O1 I8))
       (or (not U4) (not B3) (= N1 H8))
       (or (not U4) (not B3) (= M1 G8))
       (or (not U4) (not B3) (= L1 F8))
       (or (not B1) (not U4) (not B3))
       (or (not T4) (not G3) (= U1 C8))
       (or (not T4) (not G3) (= A10 S7))
       (or (not T4) (not G3) (= D8 X1))
       (or (not T4) (not G3) (= C8 Y1))
       (or (not T4) (not G3) (= B8 Z1))
       (or (not T4) (not G3) (= A8 A2))
       (or (not T4) (not G3) (= Z7 1))
       (or (not T4) (not G3) (= Y7 C2))
       (or (not T4) (not G3) (= X7 D2))
       (or (not T4) (not G3) (= W7 E2))
       (or (not T4) (not G3) (= V7 F2))
       (or (not T4) (not G3) (= U7 G2))
       (or (not T4) (not G3) (= T7 H2))
       (or (not T4) (not G3) (= S7 J2))
       (or (not T4) (not G3) (= V1 D8))
       (or (not T4) (not G3) (= T1 B8))
       (or (not T4) (not G3) (= S1 A8))
       (or (not T4) (not G3) (= R1 Z7))
       (or (not T4) (not G3) (= Q1 Y7))
       (or (not T4) (not G3) (= P1 X7))
       (or (not T4) (not G3) (= O1 W7))
       (or (not T4) (not G3) (= N1 V7))
       (or (not T4) (not G3) (= M1 U7))
       (or (not T4) (not G3) (= L1 T7))
       (or (not Y) (not T4) (not G3))
       (or (= I10 H10) (not M4) (not E10))
       (or (= H10 A10) (not M4) (not E10))
       (or (= I10 F10) (not K4) (not C10))
       (or (= F10 J2) (not K4) (not C10))
       (or G (not K4) (not C10))
       (or (= J5 X1) (not N4) (not K4))
       (or (= I5 Y1) (not N4) (not K4))
       (or (= H5 Z1) (not N4) (not K4))
       (or (= G5 A2) (not N4) (not K4))
       (or (= F5 B2) (not N4) (not K4))
       (or (= E5 C2) (not N4) (not K4))
       (or (= D5 D2) (not N4) (not K4))
       (or (= C5 E2) (not N4) (not K4))
       (or (= B5 F2) (not N4) (not K4))
       (or (= A5 G2) (not N4) (not K4))
       (or (= Z4 1) (not N4) (not K4))
       (or (= Y4 J2) (not N4) (not K4))
       (or (= U1 I5) (not N4) (not K4))
       (or (= A10 Y4) (not N4) (not K4))
       (or (= V1 J5) (not N4) (not K4))
       (or (= T1 H5) (not N4) (not K4))
       (or (= S1 G5) (not N4) (not K4))
       (or (= R1 F5) (not N4) (not K4))
       (or (= Q1 E5) (not N4) (not K4))
       (or (= P1 D5) (not N4) (not K4))
       (or (= O1 C5) (not N4) (not K4))
       (or (= N1 B5) (not N4) (not K4))
       (or (= M1 A5) (not N4) (not K4))
       (or (= L1 Z4) (not N4) (not K4))
       (or (not G) (not N4) (not K4))
       (or (and F4 I4) (and C4 J4) (not H4))
       (or (= I10 G10) (not H4) (not D10))
       (or (= G10 J2) (not H4) (not D10))
       (or (= V5 X1) (not O4) (not F4))
       (or (= U5 Y1) (not O4) (not F4))
       (or (= T5 Z1) (not O4) (not F4))
       (or (= S5 A2) (not O4) (not F4))
       (or (= R5 B2) (not O4) (not F4))
       (or (= Q5 C2) (not O4) (not F4))
       (or (= P5 D2) (not O4) (not F4))
       (or (= O5 E2) (not O4) (not F4))
       (or (= N5 F2) (not O4) (not F4))
       (or (= M5 1) (not O4) (not F4))
       (or (= L5 H2) (not O4) (not F4))
       (or (= K5 J2) (not O4) (not F4))
       (or (= U1 U5) (not O4) (not F4))
       (or (= A10 K5) (not O4) (not F4))
       (or (= V1 V5) (not O4) (not F4))
       (or (= T1 T5) (not O4) (not F4))
       (or (= S1 S5) (not O4) (not F4))
       (or (= R1 R5) (not O4) (not F4))
       (or (= Q1 Q5) (not O4) (not F4))
       (or (= P1 P5) (not O4) (not F4))
       (or (= O1 O5) (not O4) (not F4))
       (or (= N1 N5) (not O4) (not F4))
       (or (= M1 M5) (not O4) (not F4))
       (or (= L1 L5) (not O4) (not F4))
       (or (not J) (not O4) (not F4))
       (or J (not I4) (not F4))
       (or (and A4 D4) (and X3 E4) (not C4))
       (or (= U1 G6) (not P4) (not A4))
       (or (= A10 W5) (not P4) (not A4))
       (or (= H6 X1) (not P4) (not A4))
       (or (= G6 Y1) (not P4) (not A4))
       (or (= F6 Z1) (not P4) (not A4))
       (or (= E6 A2) (not P4) (not A4))
       (or (= D6 B2) (not P4) (not A4))
       (or (= C6 C2) (not P4) (not A4))
       (or (= B6 D2) (not P4) (not A4))
       (or (= A6 E2) (not P4) (not A4))
       (or (= Z5 1) (not P4) (not A4))
       (or (= Y5 G2) (not P4) (not A4))
       (or (= X5 H2) (not P4) (not A4))
       (or (= W5 J2) (not P4) (not A4))
       (or (= V1 H6) (not P4) (not A4))
       (or (= T1 F6) (not P4) (not A4))
       (or (= S1 E6) (not P4) (not A4))
       (or (= R1 D6) (not P4) (not A4))
       (or (= Q1 C6) (not P4) (not A4))
       (or (= P1 B6) (not P4) (not A4))
       (or (= O1 A6) (not P4) (not A4))
       (or (= N1 Z5) (not P4) (not A4))
       (or (= M1 Y5) (not P4) (not A4))
       (or (= L1 X5) (not P4) (not A4))
       (or (not M) (not P4) (not A4))
       (or M (not D4) (not A4))
       (or (and V3 Y3) (and S3 Z3) (not X3))
       (or (= U1 S6) (not Q4) (not V3))
       (or (= A10 I6) (not Q4) (not V3))
       (or (= T6 X1) (not Q4) (not V3))
       (or (= S6 Y1) (not Q4) (not V3))
       (or (= R6 Z1) (not Q4) (not V3))
       (or (= Q6 A2) (not Q4) (not V3))
       (or (= P6 B2) (not Q4) (not V3))
       (or (= O6 C2) (not Q4) (not V3))
       (or (= N6 D2) (not Q4) (not V3))
       (or (= M6 1) (not Q4) (not V3))
       (or (= L6 F2) (not Q4) (not V3))
       (or (= K6 G2) (not Q4) (not V3))
       (or (= J6 H2) (not Q4) (not V3))
       (or (= I6 J2) (not Q4) (not V3))
       (or (= V1 T6) (not Q4) (not V3))
       (or (= T1 R6) (not Q4) (not V3))
       (or (= S1 Q6) (not Q4) (not V3))
       (or (= R1 P6) (not Q4) (not V3))
       (or (= Q1 O6) (not Q4) (not V3))
       (or (= P1 N6) (not Q4) (not V3))
       (or (= O1 M6) (not Q4) (not V3))
       (or (= N1 L6) (not Q4) (not V3))
       (or (= M1 K6) (not Q4) (not V3))
       (or (= L1 J6) (not Q4) (not V3))
       (or (not P) (not Q4) (not V3))
       (or P (not Y3) (not V3))
       (or (and Q3 T3) (and N3 U3) (not S3))
       (or (= U1 E7) (not R4) (not Q3))
       (or (= A10 U6) (not R4) (not Q3))
       (or (= F7 X1) (not R4) (not Q3))
       (or (= E7 Y1) (not R4) (not Q3))
       (or (= D7 Z1) (not R4) (not Q3))
       (or (= C7 A2) (not R4) (not Q3))
       (or (= B7 B2) (not R4) (not Q3))
       (or (= A7 C2) (not R4) (not Q3))
       (or (= Z6 1) (not R4) (not Q3))
       (or (= Y6 E2) (not R4) (not Q3))
       (or (= X6 F2) (not R4) (not Q3))
       (or (= W6 G2) (not R4) (not Q3))
       (or (= V6 H2) (not R4) (not Q3))
       (or (= U6 J2) (not R4) (not Q3))
       (or (= V1 F7) (not R4) (not Q3))
       (or (= T1 D7) (not R4) (not Q3))
       (or (= S1 C7) (not R4) (not Q3))
       (or (= R1 B7) (not R4) (not Q3))
       (or (= Q1 A7) (not R4) (not Q3))
       (or (= P1 Z6) (not R4) (not Q3))
       (or (= O1 Y6) (not R4) (not Q3))
       (or (= N1 X6) (not R4) (not Q3))
       (or (= M1 W6) (not R4) (not Q3))
       (or (= L1 V6) (not R4) (not Q3))
       (or (not S) (not R4) (not Q3))
       (or S (not T3) (not Q3))
       (or (and L3 O3) (not N3) (and P3 I3))
       (or (= U1 Q7) (not S4) (not L3))
       (or (= A10 G7) (not S4) (not L3))
       (or (= R7 X1) (not S4) (not L3))
       (or (= Q7 Y1) (not S4) (not L3))
       (or (= P7 Z1) (not S4) (not L3))
       (or (= O7 A2) (not S4) (not L3))
       (or (= N7 B2) (not S4) (not L3))
       (or (= M7 1) (not S4) (not L3))
       (or (= L7 D2) (not S4) (not L3))
       (or (= K7 E2) (not S4) (not L3))
       (or (= J7 F2) (not S4) (not L3))
       (or (= I7 G2) (not S4) (not L3))
       (or (= H7 H2) (not S4) (not L3))
       (or (= G7 3) (not S4) (not L3))
       (or (= V1 R7) (not S4) (not L3))
       (or (= T1 P7) (not S4) (not L3))
       (or (= S1 O7) (not S4) (not L3))
       (or (= R1 N7) (not S4) (not L3))
       (or (= Q1 M7) (not S4) (not L3))
       (or (= P1 L7) (not S4) (not L3))
       (or (= O1 K7) (not S4) (not L3))
       (or (= N1 J7) (not S4) (not L3))
       (or (= M1 I7) (not S4) (not L3))
       (or (= L1 H7) (not S4) (not L3))
       (or (not V) (not S4) (not L3))
       (or V (not O3) (not L3))
       (or (not I1) (not O2) (not V2))
       (or I1 (not O2) (not S2))
       (or (not F1) (not T2) (not A3))
       (or F1 (not T2) (not X2))
       (or (not C1) (not Y2) (not F3))
       (or C1 (not Y2) (not C3))
       (or Z (not D3) (not H3))
       (or (not Z) (not K3) (not D3))
       (or (not W) (not P3) (not I3))
       (or W (not M3) (not I3))
       (or (not T) (not U3) (not N3))
       (or T (not R3) (not N3))
       (or (not Q) (not Z3) (not S3))
       (or Q (not W3) (not S3))
       (or (not N) (not E4) (not X3))
       (or N (not B4) (not X3))
       (or (not K) (not J4) (not C4))
       (or K (not G4) (not C4))
       (or (not H) (not H4) (not D10))
       (or H (not L4) (not H4))
       (or (not E) (not M4) (not E10))
       (or C (not L10) (not Q10))
       (or (not C) (not L10) (not O10))
       (or (not D) (not B10) (not K10))
       (or D (not B10) (not A11))
       (or (not U10) (and R10 V10))
       (or (not P10) (= A (= I10 1)))
       (or (not P10) (and L10 Q10))
       (or (not N10) (= B (= I10 3)))
       (or (not N10) (and L10 O10))
       a!1
       (or (not L10) (and J10 M10))
       (or (not J10) (and B10 K10))
       (or (not I3) (= W (= C2 0)))
       (or (not G3) (= Y (= X 0)))
       (or (not G3) (and D3 H3))
       (or (not D3) (= Z (= B2 0)))
       (or (not B3) (= B1 (= A1 0)))
       (or (not B3) (and Y2 C3))
       (or (not Y2) (= C1 (= A2 0)))
       (or (not W2) (= E1 (= D1 0)))
       (or (not W2) (and T2 X2))
       (or (not T2) (= F1 (= Z1 0)))
       (or (not R2) (= H1 (= G1 0)))
       (or (not R2) (and O2 S2))
       (or (not O2) (= I1 (= Y1 0)))
       (or (not M2) (= K1 (= J1 0)))
       (or (not M2) (and K2 N2))
       a!2
       (or (not K4) (= G (= F 0)))
       (or (not K4) (and H4 L4))
       (or (not H4) (= H (= H2 0)))
       (or (not F4) (= J (= I 0)))
       (or (not F4) (and C4 G4))
       (or (not C4) (= K (= G2 0)))
       (or (not A4) (= M (= L 0)))
       (or (not A4) (and X3 B4))
       (or (not X3) (= N (= F2 0)))
       (or (not V3) (= P (= O 0)))
       (or (not V3) (and S3 W3))
       (or (not S3) (= Q (= E2 0)))
       (or (not Q3) (= S (= R 0)))
       (or (not Q3) (and N3 R3))
       (or (not N3) (= T (= D2 0)))
       (or (not L3) (= V (= U 0)))
       (or (not L3) (and M3 I3))
       (or (not B10) (= D (= I10 0)))
       (= W10 true)
       (= W1 (= X1 0))
       (= 2 v_288)))
      )
      (main_1 v_288 X1 Y1 Z1 A2 B2 C2 D2 E2 F2 G2 H2 I2 J2)
    )
  )
)
(assert
  (forall ( (A Int) (B Int) (C Int) (D Int) (E Int) (F Int) (G Int) (H Int) (I Int) (J Int) (K Int) (L Int) (M Int) (v_13 Int) ) 
    (=>
      (and
        (main_1 v_13 A B C D E F G H I J K L M)
        (= 2 v_13)
      )
      false
    )
  )
)

(check-sat)
(exit)
